WARNING: for repeatability, setting FPU to use double precision
============================[ Problem Statistics ]=============================
|                                                                             |
|  Number of variables:           100                                         |
|  Number of clauses:             449                                         |
|  Parse time:                   0.00 s                                       |
|  Eliminated clauses:           0.00 Mb                                      |
|  Simplification time:          0.00 s                                       |
|                                                                             |
============================[ Search Statistics ]==============================
| Conflicts |          ORIGINAL         |          LEARNT          | Progress |
|           |    Vars  Clauses Literals |    Limit  Clauses Lit/Cl |          |
===============================================================================
|       100 |      99      447     1345 |      163      100      7 |  0.010 % |
===============================================================================
restarts              : 2
conflicts             : 112            (38795 /sec)
decisions             : 174            (0.00 % random) (60270 /sec)
propagations          : 2665           (923104 /sec)
conflict literals     : 812            (16.89 % deleted)
Memory used           : 13.00 MB
CPU time              : 0.002887 s

SATISFIABLE
